c defined variables: 33 34 35 36 37 38 39 40 41 42 43 44 45 46 47 48 49 50 51 52 53 54 55 56 57 58 59 60 61 62 63 64 65 66 67 68 69 70 71 72 73 74 75 76 77 78 79 80 81 82 83 84 85 86 87 88 89 90 91 92 93 94 95 96 97 98 99 100 101 102 103 104 105 106 107 108 109 110 111 112 113 114 115 116 117 118 119 120 121 122 123 124 125 126 127 128 129 130 131 132 133 134 135 136 137 138 139 140 141 142 143 144 145 146 147 148 149 150 151 152 153 154 155 156 157 158 159 160 161 162 163 164 165 166 167 203 204 205 206 207 208 209 210 211 212 213 214 215 216 217 218 219 220 221 222 223 224 225 226 227 228 229 230 231 232 233 234 235 236 237 238 239 240 241 242 243 244 245 246 247 248 249 250 251 252 253 254 255 256 257 258 259 260 261 262 263 264 265 266 267 268 269 270 271 272 273 274 275 276 277 278 279 280 281 282 286 287 288 289 290 291 292 293 294 295 296 297 298 299 300 301 302 303 304 305 306 307 308 309 310 311 312 313 314 315 316 317 318 
p cnf 1388 2135
a 1 2 3 4 5 6 7 8 9 10 11 12 13 14 15 16 17 18 19 20 21 22 23 24 25 26 27 28 29 30 31 32 171 172 173 174 175 176 177 178 179 180 181 182 183 184 185 186 187 188 189 190 191 192 193 194 195 196 197 198 199 200 201 202 0
e 33 34 35 36 37 38 39 40 41 42 43 44 45 46 47 48 49 50 51 52 53 54 55 56 57 58 59 60 61 62 63 64 65 66 67 68 69 70 71 72 73 74 75 76 77 78 79 80 81 82 83 84 85 86 87 88 89 90 91 92 93 94 95 96 97 98 99 100 101 102 103 104 105 106 107 108 109 110 111 112 113 114 115 116 117 118 119 120 121 122 123 124 125 126 127 128 129 130 131 132 133 134 135 136 137 138 139 140 141 142 143 144 145 146 147 148 149 150 151 152 153 154 155 156 157 158 159 160 161 162 163 164 165 166 167 203 204 205 206 207 208 209 210 211 212 213 214 215 216 217 218 219 220 221 222 223 224 225 226 227 228 229 230 231 232 233 234 235 236 237 238 239 240 241 242 243 244 245 246 247 248 249 250 251 252 253 254 255 256 257 258 259 260 261 262 263 264 265 266 267 268 269 270 271 272 273 274 275 276 277 278 279 280 281 282 286 287 288 289 290 291 292 293 294 295 296 297 298 299 300 301 302 303 304 305 306 307 308 309 310 311 312 313 314 315 316 317 318 1104 1105 1106 1107 1108 1109 1110 1111 1112 1113 1114 1115 1116 1117 1118 1119 1120 1121 1122 1123 1124 1125 1126 1127 1128 1129 1130 1131 1132 1133 1134 1135 1136 1137 1138 1139 1140 1141 1142 1143 1144 1145 1146 1147 1148 1149 1150 1151 1152 1153 1154 1155 1156 1157 1158 1159 1160 1161 1162 1163 1164 1165 1166 1167 1168 1169 1170 1171 1172 1173 1174 1175 1176 1177 1178 1179 1180 1181 1182 1183 1184 1185 1186 1187 1188 1189 1190 1191 1192 1193 1194 1195 1196 1197 1198 1199 1200 1201 1202 1203 1204 1205 1206 1207 1208 1209 1210 1211 1212 1213 1214 1215 1216 1217 1218 1219 1220 1221 1222 1223 1224 1225 1226 1227 1228 1229 1230 1231 1232 1233 1234 1235 1236 1237 1238 1239 1240 1241 1242 1243 1244 1245 1246 1247 1248 1249 1250 1251 1252 1253 1254 1255 1256 1257 1258 1259 1260 1261 1262 1263 1264 1265 1266 1267 1268 1269 1270 1271 1272 1273 1274 1275 1276 1277 1278 1279 1280 1281 1282 1283 1284 1285 1286 1287 1288 1289 1290 1291 1292 1293 1294 1295 1296 1297 1298 1299 1300 1301 1302 1303 1304 1305 1306 1307 1308 1309 1310 1311 1312 1313 1314 1315 1316 1317 1318 1319 1320 1321 1322 1323 1324 1325 1326 1327 1328 1329 1330 1331 1332 1333 1334 1335 1336 1337 1338 1339 1340 1341 1342 1343 1344 1345 1346 1347 1348 1349 1350 1351 1352 1353 1354 1355 1356 1357 1358 1359 1360 1361 1362 1363 1364 1365 1366 1367 1368 1369 1370 1371 1372 1373 1374 1375 1376 1377 1378 1379 1380 1381 1382 1383 1384 1385 1386 1387 1388 0
d 170 171 172 173 174 175 176 177 178 179 180 181 182 183 184 185 186 187 188 189 190 191 192 193 194 195 196 197 198 199 200 201 202 0
d 169 179 180 181 182 183 184 185 186 187 188 189 190 191 192 193 194 195 196 197 198 199 200 201 202 171 172 173 174 175 176 177 178 0
d 168 179 180 181 182 183 184 185 186 187 188 189 190 191 192 193 194 195 196 197 198 199 200 201 202 171 172 173 174 175 176 177 178 0
d 283 1 2 3 4 5 6 7 8 9 10 11 12 13 14 15 16 17 18 19 20 21 22 23 24 25 26 27 28 29 30 31 32 171 172 173 174 175 176 177 178 179 180 181 182 183 184 185 186 187 188 189 190 191 192 193 194 195 196 197 198 199 200 201 202 0
d 284 1 2 3 4 5 6 7 8 9 10 11 12 13 14 15 16 17 18 19 20 21 22 23 24 25 26 27 28 29 30 31 32 171 172 173 174 175 176 177 178 179 180 181 182 183 184 185 186 187 188 189 190 191 192 193 194 195 196 197 198 199 200 201 202 0
d 285 1 2 3 4 5 6 7 8 9 10 11 12 13 14 15 16 17 18 19 20 21 22 23 24 25 26 27 28 29 30 31 32 171 172 173 174 175 176 177 178 179 180 181 182 183 184 185 186 187 188 189 190 191 192 193 194 195 196 197 198 199 200 201 202 0
1104 -33 0
-1104 33 0
1105 -34 0
-1105 34 0
-1106 -35 0
1106 35 0
1107 -36 0
-1107 36 0
1108 -37 0
-1108 37 0
-1109 -38 0
1109 38 0
1110 -39 0
-1110 39 0
1111 -40 0
-1111 40 0
-1112 -41 0
1112 41 0
-12 -42 0
12 42 0
-1113 -43 0
1113 43 0
-11 -44 0
11 44 0
-1114 -45 0
1114 45 0
-10 -46 0
10 46 0
-1115 -47 0
1115 47 0
-9 -48 0
9 48 0
-1116 -49 0
1116 49 0
-49 -50 0
49 50 0
1117 -51 0
-1117 51 0
1119 -52 0
-1119 52 0
1121 -53 0
-1121 53 0
-1124 -54 0
1124 54 0
1125 -55 0
-1125 55 0
1126 -56 0
-1126 56 0
-1127 -57 0
1127 57 0
1128 -58 0
-1128 58 0
1129 -59 0
-1129 59 0
1130 -60 0
-1130 60 0
1131 -61 0
-1131 61 0
-1132 -62 0
1132 62 0
1133 -63 0
-1133 63 0
1134 -64 0
-1134 64 0
-1135 -65 0
1135 65 0
1136 -66 0
-1136 66 0
1137 -67 0
-1137 67 0
-1138 -68 0
1138 68 0
1139 -69 0
-1139 69 0
1140 -70 0
-1140 70 0
-1141 -71 0
1141 71 0
-8 -72 0
8 72 0
-1142 -73 0
1142 73 0
-7 -74 0
7 74 0
-1143 -75 0
1143 75 0
-6 -76 0
6 76 0
-1144 -77 0
1144 77 0
-5 -78 0
5 78 0
-1145 -79 0
1145 79 0
-79 -80 0
79 80 0
1146 -81 0
-1146 81 0
1148 -82 0
-1148 82 0
1150 -83 0
-1150 83 0
-1153 -84 0
1153 84 0
1154 -85 0
-1154 85 0
1155 -86 0
-1155 86 0
-1156 -87 0
1156 87 0
1157 -88 0
-1157 88 0
1158 -89 0
-1158 89 0
1159 -90 0
-1159 90 0
1160 -91 0
-1160 91 0
-1161 -92 0
1161 92 0
1162 -93 0
-1162 93 0
1163 -94 0
-1163 94 0
-1164 -95 0
1164 95 0
1165 -96 0
-1165 96 0
1166 -97 0
-1166 97 0
-1167 -98 0
1167 98 0
1168 -99 0
-1168 99 0
1169 -100 0
-1169 100 0
-1170 -101 0
1170 101 0
-4 -102 0
4 102 0
-1171 -103 0
1171 103 0
-3 -104 0
3 104 0
-1172 -105 0
1172 105 0
-2 -106 0
2 106 0
-1173 -107 0
1173 107 0
-1 -108 0
1 108 0
-1174 -109 0
1174 109 0
-109 -110 0
109 110 0
1175 -111 0
-1175 111 0
1177 -112 0
-1177 112 0
1179 -113 0
-1179 113 0
-1182 -114 0
1182 114 0
1183 -115 0
-1183 115 0
1184 -116 0
-1184 116 0
-1185 -117 0
1185 117 0
1186 -118 0
-1186 118 0
1187 -119 0
-1187 119 0
1188 -120 0
-1188 120 0
1189 -121 0
-1189 121 0
-1190 -122 0
1190 122 0
1191 -123 0
-1191 123 0
1192 -124 0
-1192 124 0
-1193 -125 0
1193 125 0
1194 -126 0
-1194 126 0
1195 -127 0
-1195 127 0
-1196 -128 0
1196 128 0
1197 -129 0
-1197 129 0
1198 -130 0
-1198 130 0
-1199 -131 0
1199 131 0
-16 -132 0
16 132 0
-1200 -133 0
1200 133 0
-15 -134 0
15 134 0
-1201 -135 0
1201 135 0
-14 -136 0
14 136 0
-1202 -137 0
1202 137 0
-13 -138 0
13 138 0
-1203 -139 0
1203 139 0
-139 -140 0
139 140 0
1204 -141 0
-1204 141 0
1206 -142 0
-1206 142 0
1208 -143 0
-1208 143 0
-1211 -144 0
1211 144 0
1212 -145 0
-1212 145 0
1213 -146 0
-1213 146 0
-1214 -147 0
1214 147 0
1215 -148 0
-1215 148 0
1216 -149 0
-1216 149 0
-144 -150 0
144 150 0
-1217 -151 0
1217 151 0
-54 -152 0
54 152 0
-1218 -153 0
1218 153 0
-84 -154 0
84 154 0
-1219 -155 0
1219 155 0
-114 -156 0
114 156 0
-1220 -157 0
1220 157 0
-157 -158 0
157 158 0
1221 -159 0
-1221 159 0
1223 -160 0
-1223 160 0
1225 -161 0
-1225 161 0
-1228 -162 0
1228 162 0
1229 -163 0
-1229 163 0
1230 -164 0
-1230 164 0
-1231 -165 0
1231 165 0
1232 -166 0
-1232 166 0
1233 -167 0
-1233 167 0
1191 -203 0
-1191 203 0
1192 -204 0
-1192 204 0
-1234 -205 0
1234 205 0
1194 -206 0
-1194 206 0
1195 -207 0
-1195 207 0
-1235 -208 0
1235 208 0
1197 -209 0
-1197 209 0
1198 -210 0
-1198 210 0
-1236 -211 0
1236 211 0
-16 -212 0
16 212 0
-1237 -213 0
1237 213 0
-15 -214 0
15 214 0
-1238 -215 0
1238 215 0
-14 -216 0
14 216 0
-1239 -217 0
1239 217 0
-13 -218 0
13 218 0
-1240 -219 0
1240 219 0
1212 -220 0
-1212 220 0
1213 -221 0
-1213 221 0
-1241 -222 0
1241 222 0
1104 -223 0
-1104 223 0
1105 -224 0
-1105 224 0
-1242 -225 0
1242 225 0
1107 -226 0
-1107 226 0
1108 -227 0
-1108 227 0
-1243 -228 0
1243 228 0
1110 -229 0
-1110 229 0
1111 -230 0
-1111 230 0
-1244 -231 0
1244 231 0
-12 -232 0
12 232 0
-1245 -233 0
1245 233 0
-11 -234 0
11 234 0
-1246 -235 0
1246 235 0
-10 -236 0
10 236 0
-1247 -237 0
1247 237 0
-9 -238 0
9 238 0
-1248 -239 0
1248 239 0
1125 -240 0
-1125 240 0
1126 -241 0
-1126 241 0
-1249 -242 0
1249 242 0
1133 -243 0
-1133 243 0
1134 -244 0
-1134 244 0
-1250 -245 0
1250 245 0
1136 -246 0
-1136 246 0
1137 -247 0
-1137 247 0
-1251 -248 0
1251 248 0
1139 -249 0
-1139 249 0
1140 -250 0
-1140 250 0
-1252 -251 0
1252 251 0
-8 -252 0
8 252 0
-1253 -253 0
1253 253 0
-7 -254 0
7 254 0
-1254 -255 0
1254 255 0
-6 -256 0
6 256 0
-1255 -257 0
1255 257 0
-5 -258 0
5 258 0
-1256 -259 0
1256 259 0
1154 -260 0
-1154 260 0
1155 -261 0
-1155 261 0
-1257 -262 0
1257 262 0
1162 -263 0
-1162 263 0
1163 -264 0
-1163 264 0
-1258 -265 0
1258 265 0
1165 -266 0
-1165 266 0
1166 -267 0
-1166 267 0
-1259 -268 0
1259 268 0
1168 -269 0
-1168 269 0
1169 -270 0
-1169 270 0
-1260 -271 0
1260 271 0
-4 -272 0
4 272 0
-1261 -273 0
1261 273 0
-3 -274 0
3 274 0
-1262 -275 0
1262 275 0
-2 -276 0
2 276 0
-1263 -277 0
1263 277 0
-1 -278 0
1 278 0
-1264 -279 0
1264 279 0
1183 -280 0
-1183 280 0
1184 -281 0
-1184 281 0
-1265 -282 0
1265 282 0
1267 -286 0
-1267 286 0
1270 -287 0
-1270 287 0
1278 -288 0
-1278 288 0
1286 -289 0
-1286 289 0
1289 -290 0
-1289 290 0
1294 -291 0
-1294 291 0
-1297 -292 0
1297 292 0
-1300 -293 0
1300 293 0
1304 -294 0
-1304 294 0
1307 -295 0
-1307 295 0
1310 -296 0
-1310 296 0
1313 -297 0
-1313 297 0
1316 -298 0
-1316 298 0
1321 -299 0
-1321 299 0
-1324 -300 0
1324 300 0
-1327 -301 0
1327 301 0
1330 -302 0
-1330 302 0
1338 -303 0
-1338 303 0
1346 -304 0
-1346 304 0
1349 -305 0
-1349 305 0
1352 -306 0
-1352 306 0
-1355 -307 0
1355 307 0
-1358 -308 0
1358 308 0
-1361 -309 0
1361 309 0
1364 -310 0
-1364 310 0
1367 -311 0
-1367 311 0
1370 -312 0
-1370 312 0
1373 -313 0
-1373 313 0
1376 -314 0
-1376 314 0
-1379 -315 0
1379 315 0
-1382 -316 0
1382 316 0
-1385 -317 0
1385 317 0
1388 -318 0
-1388 318 0
-33 -11 0
-33 27 0
11 -27 33 0
-34 11 0
-34 -27 0
-11 27 34 0
-33 35 0
-34 35 0
-35 33 34 0
-36 -10 0
-36 26 0
10 -26 36 0
-37 10 0
-37 -26 0
-10 26 37 0
-36 38 0
-37 38 0
-38 36 37 0
-39 -9 0
-39 25 0
9 -25 39 0
-40 9 0
-40 -25 0
-9 25 40 0
-39 41 0
-40 41 0
-41 39 40 0
-12 -42 0
12 42 0
-42 43 0
-28 43 0
-43 42 28 0
-11 -44 0
11 44 0
-44 45 0
-27 45 0
-45 44 27 0
-10 -46 0
10 46 0
-46 47 0
-26 47 0
-47 46 26 0
-9 -48 0
9 48 0
-48 49 0
-25 49 0
-49 48 25 0
-49 -50 0
49 50 0
-51 -41 0
-51 -47 0
41 47 51 0
-52 -38 0
-52 -41 0
-52 -45 0
38 41 45 52 0
-53 -35 0
-53 -38 0
-53 -41 0
-53 -43 0
35 38 41 43 53 0
-50 54 0
-51 54 0
-52 54 0
-53 54 0
-54 50 51 52 53 0
-55 -12 0
-55 28 0
12 -28 55 0
-56 12 0
-56 -28 0
-12 28 56 0
-55 57 0
-56 57 0
-57 55 56 0
-58 -57 0
-58 -35 0
-58 -38 0
-58 -41 0
57 35 38 41 58 0
-59 -54 0
-59 -58 0
54 58 59 0
-60 -54 0
-60 59 0
54 -59 60 0
-61 54 0
-61 -59 0
-54 59 61 0
-60 62 0
-61 62 0
-62 60 61 0
-63 -7 0
-63 23 0
7 -23 63 0
-64 7 0
-64 -23 0
-7 23 64 0
-63 65 0
-64 65 0
-65 63 64 0
-66 -6 0
-66 22 0
6 -22 66 0
-67 6 0
-67 -22 0
-6 22 67 0
-66 68 0
-67 68 0
-68 66 67 0
-69 -5 0
-69 21 0
5 -21 69 0
-70 5 0
-70 -21 0
-5 21 70 0
-69 71 0
-70 71 0
-71 69 70 0
-8 -72 0
8 72 0
-72 73 0
-24 73 0
-73 72 24 0
-7 -74 0
7 74 0
-74 75 0
-23 75 0
-75 74 23 0
-6 -76 0
6 76 0
-76 77 0
-22 77 0
-77 76 22 0
-5 -78 0
5 78 0
-78 79 0
-21 79 0
-79 78 21 0
-79 -80 0
79 80 0
-81 -71 0
-81 -77 0
71 77 81 0
-82 -68 0
-82 -71 0
-82 -75 0
68 71 75 82 0
-83 -65 0
-83 -68 0
-83 -71 0
-83 -73 0
65 68 71 73 83 0
-80 84 0
-81 84 0
-82 84 0
-83 84 0
-84 80 81 82 83 0
-85 -8 0
-85 24 0
8 -24 85 0
-86 8 0
-86 -24 0
-8 24 86 0
-85 87 0
-86 87 0
-87 85 86 0
-88 -87 0
-88 -65 0
-88 -68 0
-88 -71 0
87 65 68 71 88 0
-89 -84 0
-89 -88 0
84 88 89 0
-90 -84 0
-90 89 0
84 -89 90 0
-91 84 0
-91 -89 0
-84 89 91 0
-90 92 0
-91 92 0
-92 90 91 0
-93 -3 0
-93 19 0
3 -19 93 0
-94 3 0
-94 -19 0
-3 19 94 0
-93 95 0
-94 95 0
-95 93 94 0
-96 -2 0
-96 18 0
2 -18 96 0
-97 2 0
-97 -18 0
-2 18 97 0
-96 98 0
-97 98 0
-98 96 97 0
-99 -1 0
-99 17 0
1 -17 99 0
-100 1 0
-100 -17 0
-1 17 100 0
-99 101 0
-100 101 0
-101 99 100 0
-4 -102 0
4 102 0
-102 103 0
-20 103 0
-103 102 20 0
-3 -104 0
3 104 0
-104 105 0
-19 105 0
-105 104 19 0
-2 -106 0
2 106 0
-106 107 0
-18 107 0
-107 106 18 0
-1 -108 0
1 108 0
-108 109 0
-17 109 0
-109 108 17 0
-109 -110 0
109 110 0
-111 -101 0
-111 -107 0
101 107 111 0
-112 -98 0
-112 -101 0
-112 -105 0
98 101 105 112 0
-113 -95 0
-113 -98 0
-113 -101 0
-113 -103 0
95 98 101 103 113 0
-110 114 0
-111 114 0
-112 114 0
-113 114 0
-114 110 111 112 113 0
-115 -4 0
-115 20 0
4 -20 115 0
-116 4 0
-116 -20 0
-4 20 116 0
-115 117 0
-116 117 0
-117 115 116 0
-118 -117 0
-118 -95 0
-118 -98 0
-118 -101 0
117 95 98 101 118 0
-119 -114 0
-119 -118 0
114 118 119 0
-120 -114 0
-120 119 0
114 -119 120 0
-121 114 0
-121 -119 0
-114 119 121 0
-120 122 0
-121 122 0
-122 120 121 0
-123 -15 0
-123 31 0
15 -31 123 0
-124 15 0
-124 -31 0
-15 31 124 0
-123 125 0
-124 125 0
-125 123 124 0
-126 -14 0
-126 30 0
14 -30 126 0
-127 14 0
-127 -30 0
-14 30 127 0
-126 128 0
-127 128 0
-128 126 127 0
-129 -13 0
-129 29 0
13 -29 129 0
-130 13 0
-130 -29 0
-13 29 130 0
-129 131 0
-130 131 0
-131 129 130 0
-16 -132 0
16 132 0
-132 133 0
-32 133 0
-133 132 32 0
-15 -134 0
15 134 0
-134 135 0
-31 135 0
-135 134 31 0
-14 -136 0
14 136 0
-136 137 0
-30 137 0
-137 136 30 0
-13 -138 0
13 138 0
-138 139 0
-29 139 0
-139 138 29 0
-139 -140 0
139 140 0
-141 -131 0
-141 -137 0
131 137 141 0
-142 -128 0
-142 -131 0
-142 -135 0
128 131 135 142 0
-143 -125 0
-143 -128 0
-143 -131 0
-143 -133 0
125 128 131 133 143 0
-140 144 0
-141 144 0
-142 144 0
-143 144 0
-144 140 141 142 143 0
-145 -16 0
-145 32 0
16 -32 145 0
-146 16 0
-146 -32 0
-16 32 146 0
-145 147 0
-146 147 0
-147 145 146 0
-148 -147 0
-148 -125 0
-148 -128 0
-148 -131 0
147 125 128 131 148 0
-149 -144 0
-149 -148 0
144 148 149 0
-144 -150 0
144 150 0
-150 151 0
-149 151 0
-151 150 149 0
-54 -152 0
54 152 0
-152 153 0
-59 153 0
-153 152 59 0
-84 -154 0
84 154 0
-154 155 0
-89 155 0
-155 154 89 0
-114 -156 0
114 156 0
-156 157 0
-119 157 0
-157 156 119 0
-157 -158 0
157 158 0
-159 -122 0
-159 -155 0
122 155 159 0
-160 -92 0
-160 -122 0
-160 -153 0
92 122 153 160 0
-161 -62 0
-161 -92 0
-161 -122 0
-161 -151 0
62 92 122 151 161 0
-158 162 0
-159 162 0
-160 162 0
-161 162 0
-162 158 159 160 161 0
-163 -144 0
-163 149 0
144 -149 163 0
-164 144 0
-164 -149 0
-144 149 164 0
-163 165 0
-164 165 0
-165 163 164 0
-166 -165 0
-166 -62 0
-166 -92 0
-166 -122 0
165 62 92 122 166 0
-167 -162 0
-167 -166 0
162 166 167 0
-203 -15 0
-203 31 0
15 -31 203 0
-204 15 0
-204 -31 0
-15 31 204 0
-203 205 0
-204 205 0
-205 203 204 0
-206 -14 0
-206 30 0
14 -30 206 0
-207 14 0
-207 -30 0
-14 30 207 0
-206 208 0
-207 208 0
-208 206 207 0
-209 -13 0
-209 29 0
13 -29 209 0
-210 13 0
-210 -29 0
-13 29 210 0
-209 211 0
-210 211 0
-211 209 210 0
-16 -212 0
16 212 0
-212 213 0
-32 213 0
-213 212 32 0
-15 -214 0
15 214 0
-214 215 0
-31 215 0
-215 214 31 0
-14 -216 0
14 216 0
-216 217 0
-30 217 0
-217 216 30 0
-13 -218 0
13 218 0
-218 219 0
-29 219 0
-219 218 29 0
-220 -16 0
-220 32 0
16 -32 220 0
-221 16 0
-221 -32 0
-16 32 221 0
-220 222 0
-221 222 0
-222 220 221 0
-223 -11 0
-223 27 0
11 -27 223 0
-224 11 0
-224 -27 0
-11 27 224 0
-223 225 0
-224 225 0
-225 223 224 0
-226 -10 0
-226 26 0
10 -26 226 0
-227 10 0
-227 -26 0
-10 26 227 0
-226 228 0
-227 228 0
-228 226 227 0
-229 -9 0
-229 25 0
9 -25 229 0
-230 9 0
-230 -25 0
-9 25 230 0
-229 231 0
-230 231 0
-231 229 230 0
-12 -232 0
12 232 0
-232 233 0
-28 233 0
-233 232 28 0
-11 -234 0
11 234 0
-234 235 0
-27 235 0
-235 234 27 0
-10 -236 0
10 236 0
-236 237 0
-26 237 0
-237 236 26 0
-9 -238 0
9 238 0
-238 239 0
-25 239 0
-239 238 25 0
-240 -12 0
-240 28 0
12 -28 240 0
-241 12 0
-241 -28 0
-12 28 241 0
-240 242 0
-241 242 0
-242 240 241 0
-243 -7 0
-243 23 0
7 -23 243 0
-244 7 0
-244 -23 0
-7 23 244 0
-243 245 0
-244 245 0
-245 243 244 0
-246 -6 0
-246 22 0
6 -22 246 0
-247 6 0
-247 -22 0
-6 22 247 0
-246 248 0
-247 248 0
-248 246 247 0
-249 -5 0
-249 21 0
5 -21 249 0
-250 5 0
-250 -21 0
-5 21 250 0
-249 251 0
-250 251 0
-251 249 250 0
-8 -252 0
8 252 0
-252 253 0
-24 253 0
-253 252 24 0
-7 -254 0
7 254 0
-254 255 0
-23 255 0
-255 254 23 0
-6 -256 0
6 256 0
-256 257 0
-22 257 0
-257 256 22 0
-5 -258 0
5 258 0
-258 259 0
-21 259 0
-259 258 21 0
-260 -8 0
-260 24 0
8 -24 260 0
-261 8 0
-261 -24 0
-8 24 261 0
-260 262 0
-261 262 0
-262 260 261 0
-263 -3 0
-263 19 0
3 -19 263 0
-264 3 0
-264 -19 0
-3 19 264 0
-263 265 0
-264 265 0
-265 263 264 0
-266 -2 0
-266 18 0
2 -18 266 0
-267 2 0
-267 -18 0
-2 18 267 0
-266 268 0
-267 268 0
-268 266 267 0
-269 -1 0
-269 17 0
1 -17 269 0
-270 1 0
-270 -17 0
-1 17 270 0
-269 271 0
-270 271 0
-271 269 270 0
-4 -272 0
4 272 0
-272 273 0
-20 273 0
-273 272 20 0
-3 -274 0
3 274 0
-274 275 0
-19 275 0
-275 274 19 0
-2 -276 0
2 276 0
-276 277 0
-18 277 0
-277 276 18 0
-1 -278 0
1 278 0
-278 279 0
-17 279 0
-279 278 17 0
-280 -4 0
-280 20 0
4 -20 280 0
-281 4 0
-281 -20 0
-4 20 281 0
-280 282 0
-281 282 0
-282 280 281 0
-283 -167 168 0
-283 167 -168 0
283 -167 -168 0
283 167 168 0
-284 -166 170 0
-284 166 -170 0
284 -166 -170 0
284 166 170 0
-285 -162 169 0
-285 162 -169 0
285 -162 -169 0
285 162 169 0
-283 -284 -285 286 0
-286 283 0
-286 284 0
-286 285 0
-205 -171 -287 0
-205 171 287 0
205 -171 287 0
205 171 -287 0
-208 -172 -288 0
-208 172 288 0
208 -172 288 0
208 172 -288 0
-211 -173 -289 0
-211 173 289 0
211 -173 289 0
211 173 -289 0
-213 -174 -290 0
-213 174 290 0
213 -174 290 0
213 174 -290 0
-215 -175 -291 0
-215 175 291 0
215 -175 291 0
215 175 -291 0
-217 -176 -292 0
-217 176 292 0
217 -176 292 0
217 176 -292 0
-219 -177 -293 0
-219 177 293 0
219 -177 293 0
219 177 -293 0
-222 -178 -294 0
-222 178 294 0
222 -178 294 0
222 178 -294 0
-225 -179 -295 0
-225 179 295 0
225 -179 295 0
225 179 -295 0
-228 -180 -296 0
-228 180 296 0
228 -180 296 0
228 180 -296 0
-231 -181 -297 0
-231 181 297 0
231 -181 297 0
231 181 -297 0
-233 -182 -298 0
-233 182 298 0
233 -182 298 0
233 182 -298 0
-235 -183 -299 0
-235 183 299 0
235 -183 299 0
235 183 -299 0
-237 -184 -300 0
-237 184 300 0
237 -184 300 0
237 184 -300 0
-239 -185 -301 0
-239 185 301 0
239 -185 301 0
239 185 -301 0
-242 -186 -302 0
-242 186 302 0
242 -186 302 0
242 186 -302 0
-245 -187 -303 0
-245 187 303 0
245 -187 303 0
245 187 -303 0
-248 -188 -304 0
-248 188 304 0
248 -188 304 0
248 188 -304 0
-251 -189 -305 0
-251 189 305 0
251 -189 305 0
251 189 -305 0
-253 -190 -306 0
-253 190 306 0
253 -190 306 0
253 190 -306 0
-255 -191 -307 0
-255 191 307 0
255 -191 307 0
255 191 -307 0
-257 -192 -308 0
-257 192 308 0
257 -192 308 0
257 192 -308 0
-259 -193 -309 0
-259 193 309 0
259 -193 309 0
259 193 -309 0
-262 -194 -310 0
-262 194 310 0
262 -194 310 0
262 194 -310 0
-265 -195 -311 0
-265 195 311 0
265 -195 311 0
265 195 -311 0
-268 -196 -312 0
-268 196 312 0
268 -196 312 0
268 196 -312 0
-271 -197 -313 0
-271 197 313 0
271 -197 313 0
271 197 -313 0
-273 -198 -314 0
-273 198 314 0
273 -198 314 0
273 198 -314 0
-275 -199 -315 0
-275 199 315 0
275 -199 315 0
275 199 -315 0
-277 -200 -316 0
-277 200 316 0
277 -200 316 0
277 200 -316 0
-279 -201 -317 0
-279 201 317 0
279 -201 317 0
279 201 -317 0
-282 -202 -318 0
-282 202 318 0
282 -202 318 0
282 202 -318 0
287 288 289 290 291 292 293 294 295 296 297 298 299 300 301 302 303 304 305 306 307 308 309 310 311 312 313 314 315 316 317 318 286 0
-11 -1104 0
27 -1104 0
11 -27 1104 0
11 -1105 0
-27 -1105 0
-11 27 1105 0
-33 -1106 0
-34 -1106 0
33 34 1106 0
-10 -1107 0
26 -1107 0
10 -26 1107 0
10 -1108 0
-26 -1108 0
-10 26 1108 0
-36 -1109 0
-37 -1109 0
36 37 1109 0
-9 -1110 0
25 -1110 0
9 -25 1110 0
9 -1111 0
-25 -1111 0
-9 25 1111 0
-39 -1112 0
-40 -1112 0
39 40 1112 0
-28 -1113 0
-42 -1113 0
28 42 1113 0
-27 -1114 0
-44 -1114 0
27 44 1114 0
-26 -1115 0
-46 -1115 0
26 46 1115 0
-25 -1116 0
-48 -1116 0
25 48 1116 0
-41 -1117 0
-47 -1117 0
41 47 1117 0
-38 -1118 0
-41 -1118 0
38 41 1118 0
-45 -1119 0
1118 -1119 0
45 -1118 1119 0
-35 -1120 0
1118 -1120 0
35 -1118 1120 0
-43 -1121 0
1120 -1121 0
43 -1120 1121 0
-50 -1122 0
-51 -1122 0
50 51 1122 0
-52 -1123 0
-53 -1123 0
52 53 1123 0
1122 -1124 0
1123 -1124 0
-1122 -1123 1124 0
-12 -1125 0
28 -1125 0
12 -28 1125 0
12 -1126 0
-28 -1126 0
-12 28 1126 0
-55 -1127 0
-56 -1127 0
55 56 1127 0
-57 -1128 0
1120 -1128 0
57 -1120 1128 0
-54 -1129 0
-58 -1129 0
54 58 1129 0
-54 -1130 0
59 -1130 0
54 -59 1130 0
54 -1131 0
-59 -1131 0
-54 59 1131 0
-60 -1132 0
-61 -1132 0
60 61 1132 0
-7 -1133 0
23 -1133 0
7 -23 1133 0
7 -1134 0
-23 -1134 0
-7 23 1134 0
-63 -1135 0
-64 -1135 0
63 64 1135 0
-6 -1136 0
22 -1136 0
6 -22 1136 0
6 -1137 0
-22 -1137 0
-6 22 1137 0
-66 -1138 0
-67 -1138 0
66 67 1138 0
-5 -1139 0
21 -1139 0
5 -21 1139 0
5 -1140 0
-21 -1140 0
-5 21 1140 0
-69 -1141 0
-70 -1141 0
69 70 1141 0
-24 -1142 0
-72 -1142 0
24 72 1142 0
-23 -1143 0
-74 -1143 0
23 74 1143 0
-22 -1144 0
-76 -1144 0
22 76 1144 0
-21 -1145 0
-78 -1145 0
21 78 1145 0
-71 -1146 0
-77 -1146 0
71 77 1146 0
-68 -1147 0
-71 -1147 0
68 71 1147 0
-75 -1148 0
1147 -1148 0
75 -1147 1148 0
-65 -1149 0
1147 -1149 0
65 -1147 1149 0
-73 -1150 0
1149 -1150 0
73 -1149 1150 0
-80 -1151 0
-81 -1151 0
80 81 1151 0
-82 -1152 0
-83 -1152 0
82 83 1152 0
1151 -1153 0
1152 -1153 0
-1151 -1152 1153 0
-8 -1154 0
24 -1154 0
8 -24 1154 0
8 -1155 0
-24 -1155 0
-8 24 1155 0
-85 -1156 0
-86 -1156 0
85 86 1156 0
-87 -1157 0
1149 -1157 0
87 -1149 1157 0
-84 -1158 0
-88 -1158 0
84 88 1158 0
-84 -1159 0
89 -1159 0
84 -89 1159 0
84 -1160 0
-89 -1160 0
-84 89 1160 0
-90 -1161 0
-91 -1161 0
90 91 1161 0
-3 -1162 0
19 -1162 0
3 -19 1162 0
3 -1163 0
-19 -1163 0
-3 19 1163 0
-93 -1164 0
-94 -1164 0
93 94 1164 0
-2 -1165 0
18 -1165 0
2 -18 1165 0
2 -1166 0
-18 -1166 0
-2 18 1166 0
-96 -1167 0
-97 -1167 0
96 97 1167 0
-1 -1168 0
17 -1168 0
1 -17 1168 0
1 -1169 0
-17 -1169 0
-1 17 1169 0
-99 -1170 0
-100 -1170 0
99 100 1170 0
-20 -1171 0
-102 -1171 0
20 102 1171 0
-19 -1172 0
-104 -1172 0
19 104 1172 0
-18 -1173 0
-106 -1173 0
18 106 1173 0
-17 -1174 0
-108 -1174 0
17 108 1174 0
-101 -1175 0
-107 -1175 0
101 107 1175 0
-98 -1176 0
-101 -1176 0
98 101 1176 0
-105 -1177 0
1176 -1177 0
105 -1176 1177 0
-95 -1178 0
1176 -1178 0
95 -1176 1178 0
-103 -1179 0
1178 -1179 0
103 -1178 1179 0
-110 -1180 0
-111 -1180 0
110 111 1180 0
-112 -1181 0
-113 -1181 0
112 113 1181 0
1180 -1182 0
1181 -1182 0
-1180 -1181 1182 0
-4 -1183 0
20 -1183 0
4 -20 1183 0
4 -1184 0
-20 -1184 0
-4 20 1184 0
-115 -1185 0
-116 -1185 0
115 116 1185 0
-117 -1186 0
1178 -1186 0
117 -1178 1186 0
-114 -1187 0
-118 -1187 0
114 118 1187 0
-114 -1188 0
119 -1188 0
114 -119 1188 0
114 -1189 0
-119 -1189 0
-114 119 1189 0
-120 -1190 0
-121 -1190 0
120 121 1190 0
-15 -1191 0
31 -1191 0
15 -31 1191 0
15 -1192 0
-31 -1192 0
-15 31 1192 0
-123 -1193 0
-124 -1193 0
123 124 1193 0
-14 -1194 0
30 -1194 0
14 -30 1194 0
14 -1195 0
-30 -1195 0
-14 30 1195 0
-126 -1196 0
-127 -1196 0
126 127 1196 0
-13 -1197 0
29 -1197 0
13 -29 1197 0
13 -1198 0
-29 -1198 0
-13 29 1198 0
-129 -1199 0
-130 -1199 0
129 130 1199 0
-32 -1200 0
-132 -1200 0
32 132 1200 0
-31 -1201 0
-134 -1201 0
31 134 1201 0
-30 -1202 0
-136 -1202 0
30 136 1202 0
-29 -1203 0
-138 -1203 0
29 138 1203 0
-131 -1204 0
-137 -1204 0
131 137 1204 0
-128 -1205 0
-131 -1205 0
128 131 1205 0
-135 -1206 0
1205 -1206 0
135 -1205 1206 0
-125 -1207 0
1205 -1207 0
125 -1205 1207 0
-133 -1208 0
1207 -1208 0
133 -1207 1208 0
-140 -1209 0
-141 -1209 0
140 141 1209 0
-142 -1210 0
-143 -1210 0
142 143 1210 0
1209 -1211 0
1210 -1211 0
-1209 -1210 1211 0
-16 -1212 0
32 -1212 0
16 -32 1212 0
16 -1213 0
-32 -1213 0
-16 32 1213 0
-145 -1214 0
-146 -1214 0
145 146 1214 0
-147 -1215 0
1207 -1215 0
147 -1207 1215 0
-144 -1216 0
-148 -1216 0
144 148 1216 0
-149 -1217 0
-150 -1217 0
149 150 1217 0
-59 -1218 0
-152 -1218 0
59 152 1218 0
-89 -1219 0
-154 -1219 0
89 154 1219 0
-119 -1220 0
-156 -1220 0
119 156 1220 0
-122 -1221 0
-155 -1221 0
122 155 1221 0
-92 -1222 0
-122 -1222 0
92 122 1222 0
-153 -1223 0
1222 -1223 0
153 -1222 1223 0
-62 -1224 0
1222 -1224 0
62 -1222 1224 0
-151 -1225 0
1224 -1225 0
151 -1224 1225 0
-158 -1226 0
-159 -1226 0
158 159 1226 0
-160 -1227 0
-161 -1227 0
160 161 1227 0
1226 -1228 0
1227 -1228 0
-1226 -1227 1228 0
-144 -1229 0
149 -1229 0
144 -149 1229 0
144 -1230 0
-149 -1230 0
-144 149 1230 0
-163 -1231 0
-164 -1231 0
163 164 1231 0
-165 -1232 0
1224 -1232 0
165 -1224 1232 0
-162 -1233 0
-166 -1233 0
162 166 1233 0
-203 -1234 0
-204 -1234 0
203 204 1234 0
-206 -1235 0
-207 -1235 0
206 207 1235 0
-209 -1236 0
-210 -1236 0
209 210 1236 0
-32 -1237 0
-212 -1237 0
32 212 1237 0
-31 -1238 0
-214 -1238 0
31 214 1238 0
-30 -1239 0
-216 -1239 0
30 216 1239 0
-29 -1240 0
-218 -1240 0
29 218 1240 0
-220 -1241 0
-221 -1241 0
220 221 1241 0
-223 -1242 0
-224 -1242 0
223 224 1242 0
-226 -1243 0
-227 -1243 0
226 227 1243 0
-229 -1244 0
-230 -1244 0
229 230 1244 0
-28 -1245 0
-232 -1245 0
28 232 1245 0
-27 -1246 0
-234 -1246 0
27 234 1246 0
-26 -1247 0
-236 -1247 0
26 236 1247 0
-25 -1248 0
-238 -1248 0
25 238 1248 0
-240 -1249 0
-241 -1249 0
240 241 1249 0
-243 -1250 0
-244 -1250 0
243 244 1250 0
-246 -1251 0
-247 -1251 0
246 247 1251 0
-249 -1252 0
-250 -1252 0
249 250 1252 0
-24 -1253 0
-252 -1253 0
24 252 1253 0
-23 -1254 0
-254 -1254 0
23 254 1254 0
-22 -1255 0
-256 -1255 0
22 256 1255 0
-21 -1256 0
-258 -1256 0
21 258 1256 0
-260 -1257 0
-261 -1257 0
260 261 1257 0
-263 -1258 0
-264 -1258 0
263 264 1258 0
-266 -1259 0
-267 -1259 0
266 267 1259 0
-269 -1260 0
-270 -1260 0
269 270 1260 0
-20 -1261 0
-272 -1261 0
20 272 1261 0
-19 -1262 0
-274 -1262 0
19 274 1262 0
-18 -1263 0
-276 -1263 0
18 276 1263 0
-17 -1264 0
-278 -1264 0
17 278 1264 0
-280 -1265 0
-281 -1265 0
280 281 1265 0
283 -1266 0
284 -1266 0
-283 -284 1266 0
285 -1267 0
1266 -1267 0
-285 -1266 1267 0
-171 -1268 0
-205 -1268 0
171 205 1268 0
171 -1269 0
205 -1269 0
-171 -205 1269 0
-1268 -1270 0
-1269 -1270 0
1268 1269 1270 0
-206 -1271 0
-1195 -1271 0
206 1195 1271 0
208 -1272 0
-1271 -1272 0
-208 1271 1272 0
-172 -1273 0
-1272 -1273 0
172 1272 1273 0
-208 -1274 0
-1195 -1274 0
208 1195 1274 0
172 -1275 0
-1274 -1275 0
-172 1274 1275 0
-30 -1276 0
206 -1276 0
30 -206 1276 0
-1275 -1277 0
-1276 -1277 0
1275 1276 1277 0
-1273 -1278 0
1277 -1278 0
1273 -1277 1278 0
-209 -1279 0
-1198 -1279 0
209 1198 1279 0
211 -1280 0
-1279 -1280 0
-211 1279 1280 0
-173 -1281 0
-1280 -1281 0
173 1280 1281 0
-211 -1282 0
-1198 -1282 0
211 1198 1282 0
173 -1283 0
-1282 -1283 0
-173 1282 1283 0
-29 -1284 0
209 -1284 0
29 -209 1284 0
-1283 -1285 0
-1284 -1285 0
1283 1284 1285 0
-1281 -1286 0
1285 -1286 0
1281 -1285 1286 0
-174 -1287 0
-213 -1287 0
174 213 1287 0
174 -1288 0
213 -1288 0
-174 -213 1288 0
-1287 -1289 0
-1288 -1289 0
1287 1288 1289 0
-175 -1290 0
215 -1290 0
175 -215 1290 0
-1192 -1291 0
-1290 -1291 0
1192 1290 1291 0
175 -1292 0
-215 -1292 0
-175 215 1292 0
1192 -1293 0
-1292 -1293 0
-1192 1292 1293 0
-1291 -1294 0
-1293 -1294 0
1291 1293 1294 0
-176 -1295 0
-1195 -1295 0
176 1195 1295 0
176 -1296 0
1195 -1296 0
-176 -1195 1296 0
-1295 -1297 0
-1296 -1297 0
1295 1296 1297 0
-177 -1298 0
-1198 -1298 0
177 1198 1298 0
177 -1299 0
1198 -1299 0
-177 -1198 1299 0
-1298 -1300 0
-1299 -1300 0
1298 1299 1300 0
-1212 -1301 0
-1213 -1301 0
1212 1213 1301 0
178 -1302 0
-1301 -1302 0
-178 1301 1302 0
-178 -1303 0
1301 -1303 0
178 -1301 1303 0
-1302 -1304 0
-1303 -1304 0
1302 1303 1304 0
-179 -1305 0
-225 -1305 0
179 225 1305 0
179 -1306 0
225 -1306 0
-179 -225 1306 0
-1305 -1307 0
-1306 -1307 0
1305 1306 1307 0
-180 -1308 0
-228 -1308 0
180 228 1308 0
180 -1309 0
228 -1309 0
-180 -228 1309 0
-1308 -1310 0
-1309 -1310 0
1308 1309 1310 0
-181 -1311 0
-231 -1311 0
181 231 1311 0
181 -1312 0
231 -1312 0
-181 -231 1312 0
-1311 -1313 0
-1312 -1313 0
1311 1312 1313 0
-182 -1314 0
-233 -1314 0
182 233 1314 0
182 -1315 0
233 -1315 0
-182 -233 1315 0
-1314 -1316 0
-1315 -1316 0
1314 1315 1316 0
-183 -1317 0
235 -1317 0
183 -235 1317 0
-1105 -1318 0
-1317 -1318 0
1105 1317 1318 0
183 -1319 0
-235 -1319 0
-183 235 1319 0
1105 -1320 0
-1319 -1320 0
-1105 1319 1320 0
-1318 -1321 0
-1320 -1321 0
1318 1320 1321 0
-184 -1322 0
-1108 -1322 0
184 1108 1322 0
184 -1323 0
1108 -1323 0
-184 -1108 1323 0
-1322 -1324 0
-1323 -1324 0
1322 1323 1324 0
-185 -1325 0
-1111 -1325 0
185 1111 1325 0
185 -1326 0
1111 -1326 0
-185 -1111 1326 0
-1325 -1327 0
-1326 -1327 0
1325 1326 1327 0
-186 -1328 0
-242 -1328 0
186 242 1328 0
186 -1329 0
242 -1329 0
-186 -242 1329 0
-1328 -1330 0
-1329 -1330 0
1328 1329 1330 0
-243 -1331 0
-1134 -1331 0
243 1134 1331 0
245 -1332 0
-1331 -1332 0
-245 1331 1332 0
-187 -1333 0
-1332 -1333 0
187 1332 1333 0
-245 -1334 0
-1134 -1334 0
245 1134 1334 0
187 -1335 0
-1334 -1335 0
-187 1334 1335 0
-23 -1336 0
243 -1336 0
23 -243 1336 0
-1335 -1337 0
-1336 -1337 0
1335 1336 1337 0
-1333 -1338 0
1337 -1338 0
1333 -1337 1338 0
-246 -1339 0
-1137 -1339 0
246 1137 1339 0
248 -1340 0
-1339 -1340 0
-248 1339 1340 0
-188 -1341 0
-1340 -1341 0
188 1340 1341 0
-248 -1342 0
-1137 -1342 0
248 1137 1342 0
188 -1343 0
-1342 -1343 0
-188 1342 1343 0
-22 -1344 0
246 -1344 0
22 -246 1344 0
-1343 -1345 0
-1344 -1345 0
1343 1344 1345 0
-1341 -1346 0
1345 -1346 0
1341 -1345 1346 0
-189 -1347 0
-251 -1347 0
189 251 1347 0
189 -1348 0
251 -1348 0
-189 -251 1348 0
-1347 -1349 0
-1348 -1349 0
1347 1348 1349 0
-190 -1350 0
-253 -1350 0
190 253 1350 0
190 -1351 0
253 -1351 0
-190 -253 1351 0
-1350 -1352 0
-1351 -1352 0
1350 1351 1352 0
-191 -1353 0
-1134 -1353 0
191 1134 1353 0
191 -1354 0
1134 -1354 0
-191 -1134 1354 0
-1353 -1355 0
-1354 -1355 0
1353 1354 1355 0
-192 -1356 0
-1137 -1356 0
192 1137 1356 0
192 -1357 0
1137 -1357 0
-192 -1137 1357 0
-1356 -1358 0
-1357 -1358 0
1356 1357 1358 0
-193 -1359 0
-1140 -1359 0
193 1140 1359 0
193 -1360 0
1140 -1360 0
-193 -1140 1360 0
-1359 -1361 0
-1360 -1361 0
1359 1360 1361 0
-194 -1362 0
-262 -1362 0
194 262 1362 0
194 -1363 0
262 -1363 0
-194 -262 1363 0
-1362 -1364 0
-1363 -1364 0
1362 1363 1364 0
-195 -1365 0
-265 -1365 0
195 265 1365 0
195 -1366 0
265 -1366 0
-195 -265 1366 0
-1365 -1367 0
-1366 -1367 0
1365 1366 1367 0
-196 -1368 0
-268 -1368 0
196 268 1368 0
196 -1369 0
268 -1369 0
-196 -268 1369 0
-1368 -1370 0
-1369 -1370 0
1368 1369 1370 0
-197 -1371 0
-271 -1371 0
197 271 1371 0
197 -1372 0
271 -1372 0
-197 -271 1372 0
-1371 -1373 0
-1372 -1373 0
1371 1372 1373 0
-198 -1374 0
-273 -1374 0
198 273 1374 0
198 -1375 0
273 -1375 0
-198 -273 1375 0
-1374 -1376 0
-1375 -1376 0
1374 1375 1376 0
-199 -1377 0
-1163 -1377 0
199 1163 1377 0
199 -1378 0
1163 -1378 0
-199 -1163 1378 0
-1377 -1379 0
-1378 -1379 0
1377 1378 1379 0
-200 -1380 0
-1166 -1380 0
200 1166 1380 0
200 -1381 0
1166 -1381 0
-200 -1166 1381 0
-1380 -1382 0
-1381 -1382 0
1380 1381 1382 0
-201 -1383 0
-1169 -1383 0
201 1169 1383 0
201 -1384 0
1169 -1384 0
-201 -1169 1384 0
-1383 -1385 0
-1384 -1385 0
1383 1384 1385 0
-202 -1386 0
-282 -1386 0
202 282 1386 0
202 -1387 0
282 -1387 0
-202 -282 1387 0
-1386 -1388 0
-1387 -1388 0
1386 1387 1388 0
